12      4       
14      13      15      11      
0       0       0       0       0       2       2       3       
2       0       6       0       4       1       5       
10      5       9       4       4       2       4       7       
7       6       0       0       1       1       10      
1       10      0       7       6       1       6       
7       8       1       4       2       2       7       11      
6       7       7       3       3       1       8       
3       2       7       9       5       1       9       
3       4       6       6       0       1       12      
9       3       0       0       0       1       12      
7       5       0       10      5       1       12      
0       0       0       0       0       0       
